results_rootrelaxation/bin012_080_047.srr.sol
solution status: optimal solution found
objective value:                     16.2528735632184
_var446_                          0.00574712643677988 	(obj:3)
_var756_                            0.017241379310345 	(obj:1)
_var776_                           0.0919540229885056 	(obj:1)
_var777_                            0.500000000000001 	(obj:2)
_var779_                            0.344827586206896 	(obj:0)
_var782_                            0.241379310344828 	(obj:0)
_var786_                            0.385057471264369 	(obj:1)
_var789_                             0.32183908045977 	(obj:1)
_var790_                             0.17816091954023 	(obj:0)
_var794_                            0.666666666666668 	(obj:1)
_var795_                            0.367816091954024 	(obj:2)
_var814_                            0.390804597701148 	(obj:2)
_var819_                            0.270114942528735 	(obj:1)
_var822_                            0.183908045977011 	(obj:2)
_var829_                           0.0229885057471264 	(obj:2)
_var842_                           0.0804597701149434 	(obj:2)
_var845_                            0.120689655172413 	(obj:0)
_var853_                            0.316091954022986 	(obj:2)
_var856_                            0.356321839080461 	(obj:0)
_var868_                           0.0057471264367799 	(obj:2)
_var871_                                          0.5 	(obj:1)
_var872_                            0.344827586206897 	(obj:2)
_var877_                            0.655172413793104 	(obj:1)
_var878_                            0.367816091954023 	(obj:3)
_var879_                             0.43103448275862 	(obj:2)
_var881_                            0.114942528735632 	(obj:2)
_var882_                             0.32183908045977 	(obj:2)
_var884_                           0.0689655172413807 	(obj:2)
_var885_                            0.229885057471264 	(obj:1)
_var887_                            0.189655172413793 	(obj:2)
_var890_                             0.17816091954023 	(obj:2)
_var892_                           0.0919540229885052 	(obj:3)
_var896_                            0.206896551724139 	(obj:2)
_var898_                            0.126436781609197 	(obj:2)
_var899_                            0.132183908045976 	(obj:1)
_var902_                            0.195402298850575 	(obj:2)
_var914_                            0.252873563218391 	(obj:1)
_var916_                            0.132183908045976 	(obj:3)
_var919_                           0.0172413793103444 	(obj:3)
_var920_                           0.0172413793103465 	(obj:2)
_var929_                           0.0919540229885075 	(obj:2)
_var930_                           0.0919540229885056 	(obj:3)
_var931_                            0.155172413793102 	(obj:2)
_var937_                           0.0919540229885054 	(obj:0)
_var938_                            0.155172413793103 	(obj:2)
_var941_                           0.0172413793103445 	(obj:1)
_var944_                            0.241379310344827 	(obj:1)
_var951_                           0.0229885057471264 	(obj:3)
_var952_                           0.0919540229885056 	(obj:2)
_var953_                           0.0919540229885062 	(obj:2)
_var954_                           0.0287356321839088 	(obj:2)
_var955_                           0.0229885057471264 	(obj:2)
_var956_                           0.0862068965517236 	(obj:1)
_var959_                           0.0172413793103465 	(obj:3)
_var960_                            0.109195402298851 	(obj:3)
_var961_                           0.0172413793103465 	(obj:2)
_var962_                            0.137931034482757 	(obj:1)
_var963_                            0.068965517241379 	(obj:3)
_var964_                           0.0172413793103455 	(obj:2)
