results_rootrelaxation/bin012_080_047.srr.log
SCIP version 8.0.3.5 [precision: 8 byte] [memory: block] [mode: optimized] [LP solver: Soplex 6.0.1.3] [GitHash: 438792519e]
Copyright (c) 2002-2023 Zuse Institute Berlin (ZIB)

External libraries: 
  Readline 8.1         GNU library for command line editing (gnu.org/s/readline)
  Soplex 6.0.1.3       Linear Programming Solver developed at Zuse Institute Berlin (soplex.zib.de) [GitHash: 713be0fe]
  CppAD 20180000.0     Algorithmic Differentiation of C++ algorithms developed by B. Bell (github.com/coin-or/CppAD)
  ZLIB 1.2.11          General purpose compression library by J. Gailly and M. Adler (zlib.net)
  bliss 0.77           Computing Graph Automorphism Groups by T. Junttila and P. Kaski (www.tcs.hut.fi/Software/bliss/)

user parameter file <scip.set> not found - using default parameters

srr/relaxation = TRUE

read problem <instances/bin012_080_047.srr>
============

Original problem: 
original problem has 0 variables (0 bin, 0 int, 0 impl, 0 cont) and 77 constraints

presolving:
presolving (1 rounds: 1 fast, 1 medium, 1 exhaustive):
 0 deleted vars, 0 deleted constraints, 0 added constraints, 0 tightened bounds, 0 added holes, 0 changed sides, 0 changed coefficients
 0 implications, 0 cliques
presolved problem has 0 variables (0 bin, 0 int, 0 impl, 0 cont) and 77 constraints
     77 constraints of type <linear>
Presolving Time: 0.00

 time | node  | left  |LP iter|LP it/n|mem/heur|mdpt |vars |cons |rows |cuts |sepa|confs|strbr|  dualbound   | primalbound  |  gap   | compl. 
  0.0s|     1 |     0 |     1 |     - |   710k |   0 |   1 |  77 |  77 |   0 |  0 |   0 |   0 |      --      |      --      |    Inf | unknown
r 0.1s|     1 |     0 |  1174 |     - |simplero|   0 | 732 |  77 |  77 |   0 |  0 |   0 |   0 |      --      | 3.613441e+01 |    Inf | unknown
r 0.1s|     1 |     0 |  1210 |     - |simplero|   0 | 743 |  77 |  77 |   0 |  0 |   0 |   0 |      --      | 3.494563e+01 |    Inf | unknown
r 0.1s|     1 |     0 |  1260 |     - |simplero|   0 | 754 |  77 |  77 |   0 |  0 |   0 |   0 |      --      | 3.335399e+01 |    Inf | unknown
r 0.1s|     1 |     0 |  1315 |     - |simplero|   0 | 765 |  77 |  77 |   0 |  0 |   0 |   0 |      --      | 3.046178e+01 |    Inf | unknown
r 0.1s|     1 |     0 |  1329 |     - |simplero|   0 | 765 |  77 |  77 |   0 |  0 |   0 |   0 |      --      | 3.037325e+01 |    Inf | unknown
r 0.1s|     1 |     0 |  1335 |     - |simplero|   0 | 765 |  77 |  77 |   0 |  0 |   0 |   0 |      --      | 3.035635e+01 |    Inf | unknown
r 0.1s|     1 |     0 |  1384 |     - |simplero|   0 | 776 |  77 |  77 |   0 |  0 |   0 |   0 |      --      | 2.899154e+01 |    Inf | unknown
r 0.1s|     1 |     0 |  1399 |     - |simplero|   0 | 776 |  77 |  77 |   0 |  0 |   0 |   0 |      --      | 2.887673e+01 |    Inf | unknown
r 0.1s|     1 |     0 |  1403 |     - |simplero|   0 | 776 |  77 |  77 |   0 |  0 |   0 |   0 |      --      | 2.886158e+01 |    Inf | unknown
r 0.1s|     1 |     0 |  1451 |     - |simplero|   0 | 787 |  77 |  77 |   0 |  0 |   0 |   0 |      --      | 2.676696e+01 |    Inf | unknown
r 0.1s|     1 |     0 |  1495 |     - |simplero|   0 | 787 |  77 |  77 |   0 |  0 |   0 |   0 |      --      | 2.599821e+01 |    Inf | unknown
r 0.1s|     1 |     0 |  1516 |     - |simplero|   0 | 787 |  77 |  77 |   0 |  0 |   0 |   0 |      --      | 2.590445e+01 |    Inf | unknown
r 0.1s|     1 |     0 |  1520 |     - |simplero|   0 | 787 |  77 |  77 |   0 |  0 |   0 |   0 |      --      | 2.589483e+01 |    Inf | unknown
r 0.1s|     1 |     0 |  1528 |     - |simplero|   0 | 787 |  77 |  77 |   0 |  0 |   0 |   0 |      --      | 2.588612e+01 |    Inf | unknown
 time | node  | left  |LP iter|LP it/n|mem/heur|mdpt |vars |cons |rows |cuts |sepa|confs|strbr|  dualbound   | primalbound  |  gap   | compl. 
r 0.1s|     1 |     0 |  1583 |     - |simplero|   0 | 798 |  77 |  77 |   0 |  0 |   0 |   0 |      --      | 2.388390e+01 |    Inf | unknown
r 0.1s|     1 |     0 |  1600 |     - |simplero|   0 | 798 |  77 |  77 |   0 |  0 |   0 |   0 |      --      | 2.383296e+01 |    Inf | unknown
r 0.1s|     1 |     0 |  1614 |     - |simplero|   0 | 798 |  77 |  77 |   0 |  0 |   0 |   0 |      --      | 2.377415e+01 |    Inf | unknown
r 0.1s|     1 |     0 |  1652 |     - |simplero|   0 | 809 |  77 |  77 |   0 |  0 |   0 |   0 |      --      | 2.290070e+01 |    Inf | unknown
r 0.1s|     1 |     0 |  1667 |     - |simplero|   0 | 809 |  77 |  77 |   0 |  0 |   0 |   0 |      --      | 2.283524e+01 |    Inf | unknown
r 0.1s|     1 |     0 |  1668 |     - |simplero|   0 | 809 |  77 |  77 |   0 |  0 |   0 |   0 |      --      | 2.283262e+01 |    Inf | unknown
r 0.1s|     1 |     0 |  1727 |     - |simplero|   0 | 820 |  77 |  77 |   0 |  0 |   0 |   0 |      --      | 2.119815e+01 |    Inf | unknown
r 0.1s|     1 |     0 |  1734 |     - |simplero|   0 | 820 |  77 |  77 |   0 |  0 |   0 |   0 |      --      | 2.116563e+01 |    Inf | unknown
r 0.1s|     1 |     0 |  1737 |     - |simplero|   0 | 820 |  77 |  77 |   0 |  0 |   0 |   0 |      --      | 2.116454e+01 |    Inf | unknown
r 0.1s|     1 |     0 |  1774 |     - |simplero|   0 | 831 |  77 |  77 |   0 |  0 |   0 |   0 |      --      | 2.042589e+01 |    Inf | unknown
r 0.1s|     1 |     0 |  1778 |     - |simplero|   0 | 831 |  77 |  77 |   0 |  0 |   0 |   0 |      --      | 2.042503e+01 |    Inf | unknown
r 0.1s|     1 |     0 |  1812 |     - |simplero|   0 | 842 |  77 |  77 |   0 |  0 |   0 |   0 |      --      | 1.993795e+01 |    Inf | unknown
r 0.1s|     1 |     0 |  1817 |     - |simplero|   0 | 842 |  77 |  77 |   0 |  0 |   0 |   0 |      --      | 1.993604e+01 |    Inf | unknown
  0.1s|     1 |     0 |  1840 |     - |  4223k |   0 | 853 |  77 |  77 |   0 |  0 |   0 |   0 |      --      | 1.993604e+01 |    Inf | unknown
r 0.1s|     1 |     0 |  1840 |     - |simplero|   0 | 853 |  77 |  77 |   0 |  0 |   0 |   0 |      --      | 1.940644e+01 |    Inf | unknown
 time | node  | left  |LP iter|LP it/n|mem/heur|mdpt |vars |cons |rows |cuts |sepa|confs|strbr|  dualbound   | primalbound  |  gap   | compl. 
r 0.1s|     1 |     0 |  1862 |     - |simplero|   0 | 853 |  77 |  77 |   0 |  0 |   0 |   0 |      --      | 1.916514e+01 |    Inf | unknown
r 0.1s|     1 |     0 |  1863 |     - |simplero|   0 | 853 |  77 |  77 |   0 |  0 |   0 |   0 |      --      | 1.916349e+01 |    Inf | unknown
r 0.1s|     1 |     0 |  1882 |     - |simplero|   0 | 864 |  77 |  77 |   0 |  0 |   0 |   0 |      --      | 1.888806e+01 |    Inf | unknown
r 0.1s|     1 |     0 |  1897 |     - |simplero|   0 | 864 |  77 |  77 |   0 |  0 |   0 |   0 |      --      | 1.878592e+01 |    Inf | unknown
r 0.1s|     1 |     0 |  1929 |     - |simplero|   0 | 874 |  77 |  77 |   0 |  0 |   0 |   0 |      --      | 1.842667e+01 |    Inf | unknown
r 0.1s|     1 |     0 |  1934 |     - |simplero|   0 | 874 |  77 |  77 |   0 |  0 |   0 |   0 |      --      | 1.842531e+01 |    Inf | unknown
r 0.1s|     1 |     0 |  1975 |     - |simplero|   0 | 884 |  77 |  77 |   0 |  0 |   0 |   0 |      --      | 1.763811e+01 |    Inf | unknown
r 0.1s|     1 |     0 |  1994 |     - |simplero|   0 | 884 |  77 |  77 |   0 |  0 |   0 |   0 |      --      | 1.746976e+01 |    Inf | unknown
r 0.1s|     1 |     0 |  1996 |     - |simplero|   0 | 884 |  77 |  77 |   0 |  0 |   0 |   0 |      --      | 1.746719e+01 |    Inf | unknown
r 0.1s|     1 |     0 |  2047 |     - |simplero|   0 | 894 |  77 |  77 |   0 |  0 |   0 |   0 |      --      | 1.698062e+01 |    Inf | unknown
r 0.1s|     1 |     0 |  2055 |     - |simplero|   0 | 894 |  77 |  77 |   0 |  0 |   0 |   0 |      --      | 1.695897e+01 |    Inf | unknown
r 0.1s|     1 |     0 |  2091 |     - |simplero|   0 | 904 |  77 |  77 |   0 |  0 |   0 |   0 |      --      | 1.667243e+01 |    Inf | unknown
r 0.1s|     1 |     0 |  2097 |     - |simplero|   0 | 904 |  77 |  77 |   0 |  0 |   0 |   0 |      --      | 1.665156e+01 |    Inf | unknown
r 0.1s|     1 |     0 |  2126 |     - |simplero|   0 | 915 |  77 |  77 |   0 |  0 |   0 |   0 |      --      | 1.649057e+01 |    Inf | unknown
r 0.1s|     1 |     0 |  2150 |     - |simplero|   0 | 925 |  77 |  77 |   0 |  0 |   0 |   0 |      --      | 1.640625e+01 |    Inf | unknown
 time | node  | left  |LP iter|LP it/n|mem/heur|mdpt |vars |cons |rows |cuts |sepa|confs|strbr|  dualbound   | primalbound  |  gap   | compl. 
r 0.1s|     1 |     0 |  2152 |     - |simplero|   0 | 925 |  77 |  77 |   0 |  0 |   0 |   0 |      --      | 1.640606e+01 |    Inf | unknown
r 0.1s|     1 |     0 |  2180 |     - |simplero|   0 | 935 |  77 |  77 |   0 |  0 |   0 |   0 |      --      | 1.633333e+01 |    Inf | unknown
r 0.1s|     1 |     0 |  2201 |     - |simplero|   0 | 944 |  77 |  77 |   0 |  0 |   0 |   0 |      --      | 1.632203e+01 |    Inf | unknown
r 0.1s|     1 |     0 |  2210 |     - |simplero|   0 | 944 |  77 |  77 |   0 |  0 |   0 |   0 |      --      | 1.631507e+01 |    Inf | unknown
r 0.1s|     1 |     0 |  2228 |     - |simplero|   0 | 953 |  77 |  77 |   0 |  0 |   0 |   0 |      --      | 1.628571e+01 |    Inf | unknown
r 0.1s|     1 |     0 |  2235 |     - |simplero|   0 | 953 |  77 |  77 |   0 |  0 |   0 |   0 |      --      | 1.627778e+01 |    Inf | unknown
r 0.1s|     1 |     0 |  2246 |     - |simplero|   0 | 959 |  77 |  77 |   0 |  0 |   0 |   0 |      --      | 1.626667e+01 |    Inf | unknown
r 0.1s|     1 |     0 |  2249 |     - |simplero|   0 | 961 |  77 |  77 |   0 |  0 |   0 |   0 |      --      | 1.626190e+01 |    Inf | unknown
r 0.1s|     1 |     0 |  2251 |     - |simplero|   0 | 961 |  77 |  77 |   0 |  0 |   0 |   0 |      --      | 1.626120e+01 |    Inf | unknown
r 0.1s|     1 |     0 |  2254 |     - |simplero|   0 | 963 |  77 |  77 |   0 |  0 |   0 |   0 |      --      | 1.625871e+01 |    Inf | unknown
r 0.1s|     1 |     0 |  2255 |     - |simplero|   0 | 963 |  77 |  77 |   0 |  0 |   0 |   0 |      --      | 1.625858e+01 |    Inf | unknown
r 0.1s|     1 |     0 |  2263 |     - |simplero|   0 | 966 |  77 |  77 |   0 |  0 |   0 |   0 |      --      | 1.625287e+01 |    Inf | unknown
  0.1s|     1 |     0 |  2264 |     - |  4779k |   0 | 966 |  77 |  77 |   0 |  0 |   0 |   0 | 1.625287e+01 | 1.625287e+01 |   0.00%| unknown
  0.1s|     1 |     0 |  2264 |     - |  4779k |   0 | 966 |  77 |  77 |   0 |  0 |   0 |   0 | 1.625287e+01 | 1.625287e+01 |   0.00%| unknown

SCIP Status        : problem is solved [optimal solution found]
Solving Time (sec) : 0.11
Solving Nodes      : 1
Primal Bound       : +1.62528735632184e+01 (55 solutions)
Dual Bound         : +1.62528735632184e+01
Gap                : 0.00 %

written transformed problem to file <results_rootrelaxation/bin012_080_047.srr.lp>
written transformed problem to file <results_rootrelaxation/bin012_080_047.srr.cip>

written solution information to file <results_rootrelaxation/bin012_080_047.srr.sol>



